51
25
0 25 26 31 34 35 36 39 42 44 45 47 49 50
1 26 27 28 31 32 34 35 36 38 39 40 42 44 45 46 49 50
2 25 27 29 30 31 34 35 36 39 40 42 44 46 47 50
3 25 26 31 33 34 35 36 38 40 42 44 45 49 50
4 26 31 32 34 35 36 38 39 45 47 50
5 25 26 27 31 35 36 38 39 40 42 44 45 46 47 48
6 25 26 27 28 30 31 32 33 34 35 36 42 45 47 50
7 25 26 31 34 35 36 38 39 41 42 44 45 50
8 25 28 33 34 39 44 47
9 25 26 27 31 32 35 46 47
10 26 27 28 29 31 35 38 39 40 41 42 44 45 46 50
11 26 27 28 29 32 36 37 38 42 44 45 47 50
12 28 29 35 37 38 40 42 44 45 47 49
13 32 34 37 38 39 40 41 42 44 45 46 49
14 25 28 33 34 35 37 40 42 44 45
15 26 30 33 36 46 47
16 30 35 38 39 42 47
17 36 37 41 45 49
18 26 29 39
19 31 32 34 42 44 47 49
20 29 30 41 46
21 25 27 28
22 36 43 46 50
23 35 40 44
24 26
